c SSAT file for PBN EPFL/random_control/router_distill_EPFL/random_control/router_miter written by probABC
p cnf 350 867
r 0.500000 1 0
r 0.500000 2 0
r 0.500000 3 0
r 0.500000 4 0
r 0.500000 5 0
r 0.500000 6 0
r 0.500000 7 0
r 0.500000 8 0
r 0.500000 9 0
r 0.500000 10 0
r 0.500000 11 0
r 0.500000 12 0
r 0.500000 13 0
r 0.500000 14 0
r 0.500000 15 0
r 0.500000 16 0
r 0.500000 17 0
r 0.500000 18 0
r 0.500000 19 0
r 0.500000 20 0
r 0.500000 21 0
r 0.500000 22 0
r 0.500000 23 0
r 0.500000 24 0
r 0.500000 25 0
r 0.500000 26 0
r 0.500000 27 0
r 0.500000 28 0
r 0.500000 29 0
r 0.500000 30 0
r 0.500000 31 0
r 0.500000 32 0
r 0.500000 33 0
r 0.500000 34 0
r 0.500000 35 0
r 0.500000 36 0
r 0.500000 37 0
r 0.500000 38 0
r 0.500000 39 0
r 0.500000 40 0
r 0.500000 41 0
r 0.500000 42 0
r 0.500000 43 0
r 0.500000 44 0
r 0.500000 45 0
r 0.500000 46 0
r 0.500000 47 0
r 0.500000 48 0
r 0.500000 49 0
r 0.500000 50 0
r 0.500000 51 0
r 0.500000 52 0
r 0.500000 53 0
r 0.500000 54 0
r 0.500000 55 0
r 0.500000 56 0
r 0.500000 57 0
r 0.500000 58 0
r 0.500000 59 0
r 0.500000 60 0
r 0.125000 61 0
e 63 0
e 64 0
e 65 0
e 66 0
e 67 0
e 68 0
e 69 0
e 70 0
e 71 0
e 72 0
e 73 0
e 74 0
e 75 0
e 76 0
e 77 0
e 78 0
e 79 0
e 80 0
e 81 0
e 82 0
e 83 0
e 84 0
e 85 0
e 86 0
e 87 0
e 88 0
e 89 0
e 90 0
e 91 0
e 92 0
e 93 0
e 94 0
e 95 0
e 96 0
e 97 0
e 98 0
e 99 0
e 100 0
e 101 0
e 102 0
e 103 0
e 104 0
e 105 0
e 106 0
e 107 0
e 108 0
e 109 0
e 110 0
e 111 0
e 112 0
e 113 0
e 114 0
e 115 0
e 116 0
e 117 0
e 118 0
e 119 0
e 120 0
e 121 0
e 122 0
e 123 0
e 124 0
e 125 0
e 126 0
e 127 0
e 128 0
e 129 0
e 130 0
e 131 0
e 132 0
e 133 0
e 134 0
e 135 0
e 136 0
e 137 0
e 138 0
e 139 0
e 140 0
e 141 0
e 142 0
e 143 0
e 144 0
e 145 0
e 146 0
e 147 0
e 148 0
e 149 0
e 150 0
e 151 0
e 152 0
e 153 0
e 154 0
e 155 0
e 156 0
e 157 0
e 158 0
e 159 0
e 160 0
e 161 0
e 162 0
e 163 0
e 164 0
e 165 0
e 166 0
e 167 0
e 168 0
e 169 0
e 170 0
e 171 0
e 172 0
e 173 0
e 174 0
e 175 0
e 176 0
e 177 0
e 178 0
e 179 0
e 180 0
e 181 0
e 182 0
e 183 0
e 184 0
e 185 0
e 186 0
e 188 0
e 189 0
e 190 0
e 191 0
e 192 0
e 193 0
e 194 0
e 195 0
e 196 0
e 197 0
e 198 0
e 199 0
e 200 0
e 201 0
e 202 0
e 203 0
e 204 0
e 205 0
e 206 0
e 207 0
e 208 0
e 209 0
e 210 0
e 211 0
e 212 0
e 213 0
e 214 0
e 215 0
e 216 0
e 217 0
e 218 0
e 219 0
e 220 0
e 221 0
e 222 0
e 223 0
e 224 0
e 225 0
e 226 0
e 227 0
e 228 0
e 229 0
e 230 0
e 231 0
e 232 0
e 233 0
e 234 0
e 235 0
e 236 0
e 237 0
e 238 0
e 239 0
e 240 0
e 241 0
e 242 0
e 243 0
e 244 0
e 245 0
e 246 0
e 247 0
e 248 0
e 249 0
e 250 0
e 251 0
e 252 0
e 253 0
e 254 0
e 255 0
e 256 0
e 257 0
e 258 0
e 259 0
e 260 0
e 261 0
e 262 0
e 263 0
e 264 0
e 265 0
e 266 0
e 267 0
e 268 0
e 269 0
e 270 0
e 271 0
e 272 0
e 273 0
e 274 0
e 275 0
e 276 0
e 277 0
e 278 0
e 279 0
e 280 0
e 281 0
e 282 0
e 283 0
e 284 0
e 285 0
e 286 0
e 287 0
e 288 0
e 289 0
e 290 0
e 291 0
e 292 0
e 293 0
e 294 0
e 295 0
e 296 0
e 297 0
e 298 0
e 299 0
e 300 0
e 301 0
e 302 0
e 303 0
e 304 0
e 305 0
e 306 0
e 307 0
e 308 0
e 309 0
e 310 0
e 311 0
e 312 0
e 313 0
e 314 0
e 315 0
e 316 0
e 317 0
e 318 0
e 323 0
e 324 0
e 325 0
e 326 0
e 327 0
e 328 0
e 329 0
e 330 0
e 331 0
e 332 0
e 333 0
e 334 0
e 335 0
e 336 0
e 337 0
e 338 0
e 339 0
e 340 0
e 341 0
e 342 0
e 343 0
e 344 0
e 345 0
e 346 0
e 347 0
e 348 0
e 349 0
e 350 0
e 351 0
e 352 0
e 353 0
e 354 0
e 355 0
e 62 0
63 10 11 0
-63 -10 0
-63 -11 0
64 -10 -11 0
-64 10 0
-64 11 0
65 63 64 0
-65 -63 0
-65 -64 0
66 -12 63 0
-66 12 0
-66 -63 0
67 12 -63 0
-67 -12 0
-67 63 0
68 66 67 0
-68 -66 0
-68 -67 0
69 13 66 0
-69 -13 0
-69 -66 0
70 -13 -66 0
-70 13 0
-70 66 0
71 69 70 0
-71 -69 0
-71 -70 0
72 14 -69 0
-72 -14 0
-72 69 0
73 -14 69 0
-73 14 0
-73 -69 0
74 72 73 0
-74 -72 0
-74 -73 0
75 -15 72 0
-75 15 0
-75 -72 0
76 15 -72 0
-76 -15 0
-76 72 0
77 75 76 0
-77 -75 0
-77 -76 0
78 -16 75 0
-78 16 0
-78 -75 0
79 16 -75 0
-79 -16 0
-79 75 0
80 78 79 0
-80 -78 0
-80 -79 0
81 -16 -75 0
-81 16 0
-81 75 0
82 17 81 0
-82 -17 0
-82 -81 0
83 -17 -81 0
-83 17 0
-83 81 0
84 82 83 0
-84 -82 0
-84 -83 0
85 -18 82 0
-85 18 0
-85 -82 0
86 18 -82 0
-86 -18 0
-86 82 0
87 85 86 0
-87 -85 0
-87 -86 0
88 19 85 0
-88 -19 0
-88 -85 0
89 -19 -85 0
-89 19 0
-89 85 0
90 88 89 0
-90 -88 0
-90 -89 0
91 -20 88 0
-91 20 0
-91 -88 0
92 20 -88 0
-92 -20 0
-92 88 0
93 91 92 0
-93 -91 0
-93 -92 0
94 -21 91 0
-94 21 0
-94 -91 0
95 21 -91 0
-95 -21 0
-95 91 0
96 94 95 0
-96 -94 0
-96 -95 0
97 -21 -91 0
-97 21 0
-97 91 0
98 22 97 0
-98 -22 0
-98 -97 0
99 -22 -97 0
-99 22 0
-99 97 0
100 98 99 0
-100 -98 0
-100 -99 0
101 23 -98 0
-101 -23 0
-101 98 0
102 -23 98 0
-102 23 0
-102 -98 0
103 101 102 0
-103 -101 0
-103 -102 0
104 -24 101 0
-104 24 0
-104 -101 0
105 24 -101 0
-105 -24 0
-105 101 0
106 104 105 0
-106 -104 0
-106 -105 0
107 -25 104 0
-107 25 0
-107 -104 0
108 25 -104 0
-108 -25 0
-108 104 0
109 107 108 0
-109 -107 0
-109 -108 0
110 -25 -104 0
-110 25 0
-110 104 0
111 -26 110 0
-111 26 0
-111 -110 0
112 26 -110 0
-112 -26 0
-112 110 0
113 111 112 0
-113 -111 0
-113 -112 0
114 -26 -110 0
-114 26 0
-114 110 0
115 27 114 0
-115 -27 0
-115 -114 0
116 -27 -114 0
-116 27 0
-116 114 0
117 115 116 0
-117 -115 0
-117 -116 0
118 -28 115 0
-118 28 0
-118 -115 0
119 28 -115 0
-119 -28 0
-119 115 0
120 118 119 0
-120 -118 0
-120 -119 0
121 -29 118 0
-121 29 0
-121 -118 0
122 29 -118 0
-122 -29 0
-122 118 0
123 121 122 0
-123 -121 0
-123 -122 0
124 -29 -118 0
-124 29 0
-124 118 0
125 30 -124 0
-125 -30 0
-125 124 0
126 -30 124 0
-126 30 0
-126 -124 0
127 125 126 0
-127 -125 0
-127 -126 0
128 10 127 0
-128 -10 0
-128 -127 0
129 123 -128 0
-129 -123 0
-129 128 0
130 -120 -129 0
-130 120 0
-130 129 0
131 117 -130 0
-131 -117 0
-131 130 0
132 113 -131 0
-132 -113 0
-132 131 0
133 109 -132 0
-133 -109 0
-133 132 0
134 -106 -133 0
-134 106 0
-134 133 0
135 103 -134 0
-135 -103 0
-135 134 0
136 100 -135 0
-136 -100 0
-136 135 0
137 96 -136 0
-137 -96 0
-137 136 0
138 -93 -137 0
-138 93 0
-138 137 0
139 90 -138 0
-139 -90 0
-139 138 0
140 -87 -139 0
-140 87 0
-140 139 0
141 84 -140 0
-141 -84 0
-141 140 0
142 80 -141 0
-142 -80 0
-142 141 0
143 -77 -142 0
-143 77 0
-143 142 0
144 74 -143 0
-144 -74 0
-144 143 0
145 71 -144 0
-145 -71 0
-145 144 0
146 -68 -145 0
-146 68 0
-146 145 0
147 65 -146 0
-147 -65 0
-147 146 0
148 -9 -147 0
-148 9 0
-148 147 0
149 -8 -148 0
-149 8 0
-149 148 0
150 -7 -149 0
-150 7 0
-150 149 0
151 -6 -150 0
-151 6 0
-151 150 0
152 -5 -151 0
-152 5 0
-152 151 0
153 -4 -152 0
-153 4 0
-153 152 0
154 -3 -153 0
-154 3 0
-154 153 0
155 -2 -154 0
-155 2 0
-155 154 0
156 -1 -155 0
-156 1 0
-156 155 0
157 -30 -124 0
-157 30 0
-157 124 0
158 156 157 0
-158 -156 0
-158 -157 0
159 2 3 0
-159 -2 0
-159 -3 0
160 4 -159 0
-160 -4 0
-160 159 0
161 5 -160 0
-161 -5 0
-161 160 0
162 6 -161 0
-162 -6 0
-162 161 0
163 7 -162 0
-163 -7 0
-163 162 0
164 8 -163 0
-164 -8 0
-164 163 0
165 9 -164 0
-165 -9 0
-165 164 0
166 -65 -165 0
-166 65 0
-166 165 0
167 68 -166 0
-167 -68 0
-167 166 0
168 -71 -167 0
-168 71 0
-168 167 0
169 -74 -168 0
-169 74 0
-169 168 0
170 77 -169 0
-170 -77 0
-170 169 0
171 -80 -170 0
-171 80 0
-171 170 0
172 -84 -171 0
-172 84 0
-172 171 0
173 87 -172 0
-173 -87 0
-173 172 0
174 -90 -173 0
-174 90 0
-174 173 0
175 93 -174 0
-175 -93 0
-175 174 0
176 -96 -175 0
-176 96 0
-176 175 0
177 -100 -176 0
-177 100 0
-177 176 0
178 -103 -177 0
-178 103 0
-178 177 0
179 106 -178 0
-179 -106 0
-179 178 0
180 -109 -179 0
-180 109 0
-180 179 0
181 -113 -180 0
-181 113 0
-181 180 0
182 -117 -181 0
-182 117 0
-182 181 0
183 120 -182 0
-183 -120 0
-183 182 0
184 -123 -183 0
-184 123 0
-184 183 0
185 -10 -184 0
-185 10 0
-185 184 0
186 -157 185 0
-186 157 0
-186 -185 0
188 40 41 0
-188 -40 0
-188 -41 0
189 -42 188 0
-189 42 0
-189 -188 0
190 43 189 0
-190 -43 0
-190 -189 0
191 44 -190 0
-191 -44 0
-191 190 0
192 -45 191 0
-192 45 0
-192 -191 0
193 -46 -192 0
-193 46 0
-193 192 0
194 47 193 0
-194 -47 0
-194 -193 0
195 -48 194 0
-195 48 0
-195 -194 0
196 49 195 0
-196 -49 0
-196 -195 0
197 -50 196 0
-197 50 0
-197 -196 0
198 -51 -197 0
-198 51 0
-198 197 0
199 52 198 0
-199 -52 0
-199 -198 0
200 53 -199 0
-200 -53 0
-200 199 0
201 -54 200 0
-201 54 0
-201 -200 0
202 -55 -201 0
-202 55 0
-202 201 0
203 -56 -202 0
-203 56 0
-203 202 0
204 57 203 0
-204 -57 0
-204 -203 0
205 -58 204 0
-205 58 0
-205 -204 0
206 -59 -205 0
-206 59 0
-206 205 0
207 -60 -206 0
-207 60 0
-207 206 0
208 -1 207 0
-208 1 0
-208 -207 0
209 1 31 0
-209 -1 0
-209 -31 0
210 -207 209 0
-210 207 0
-210 -209 0
211 -40 -41 0
-211 40 0
-211 41 0
212 188 211 0
-212 -188 0
-212 -211 0
213 42 -188 0
-213 -42 0
-213 188 0
214 189 213 0
-214 -189 0
-214 -213 0
215 -43 -189 0
-215 43 0
-215 189 0
216 190 215 0
-216 -190 0
-216 -215 0
217 -44 190 0
-217 44 0
-217 -190 0
218 191 217 0
-218 -191 0
-218 -217 0
219 45 -191 0
-219 -45 0
-219 191 0
220 192 219 0
-220 -192 0
-220 -219 0
221 -46 192 0
-221 46 0
-221 -192 0
222 46 -192 0
-222 -46 0
-222 192 0
223 221 222 0
-223 -221 0
-223 -222 0
224 -47 -193 0
-224 47 0
-224 193 0
225 194 224 0
-225 -194 0
-225 -224 0
226 48 -194 0
-226 -48 0
-226 194 0
227 195 226 0
-227 -195 0
-227 -226 0
228 -49 -195 0
-228 49 0
-228 195 0
229 196 228 0
-229 -196 0
-229 -228 0
230 50 -196 0
-230 -50 0
-230 196 0
231 197 230 0
-231 -197 0
-231 -230 0
232 -51 197 0
-232 51 0
-232 -197 0
233 51 -197 0
-233 -51 0
-233 197 0
234 232 233 0
-234 -232 0
-234 -233 0
235 -52 -198 0
-235 52 0
-235 198 0
236 199 235 0
-236 -199 0
-236 -235 0
237 -53 199 0
-237 53 0
-237 -199 0
238 200 237 0
-238 -200 0
-238 -237 0
239 54 -200 0
-239 -54 0
-239 200 0
240 201 239 0
-240 -201 0
-240 -239 0
241 -55 201 0
-241 55 0
-241 -201 0
242 55 -201 0
-242 -55 0
-242 201 0
243 241 242 0
-243 -241 0
-243 -242 0
244 -56 202 0
-244 56 0
-244 -202 0
245 56 -202 0
-245 -56 0
-245 202 0
246 244 245 0
-246 -244 0
-246 -245 0
247 -57 -203 0
-247 57 0
-247 203 0
248 204 247 0
-248 -204 0
-248 -247 0
249 58 -204 0
-249 -58 0
-249 204 0
250 205 249 0
-250 -205 0
-250 -249 0
251 -59 205 0
-251 59 0
-251 -205 0
252 59 -205 0
-252 -59 0
-252 205 0
253 251 252 0
-253 -251 0
-253 -252 0
254 -31 40 0
-254 31 0
-254 -40 0
255 -60 -254 0
-255 60 0
-255 254 0
256 253 -255 0
-256 -253 0
-256 255 0
257 -250 -256 0
-257 250 0
-257 256 0
258 -61 257 0
-258 61 0
-258 -257 0
259 61 -257 0
-259 -61 0
-259 257 0
260 258 259 0
-260 -258 0
-260 -259 0
261 248 260 0
-261 -248 0
-261 -260 0
262 246 -261 0
-262 -246 0
-262 261 0
263 243 -262 0
-263 -243 0
-263 262 0
264 -240 -263 0
-264 240 0
-264 263 0
265 238 -264 0
-265 -238 0
-265 264 0
266 236 -265 0
-266 -236 0
-266 265 0
267 234 -266 0
-267 -234 0
-267 266 0
268 -231 -267 0
-268 231 0
-268 267 0
269 229 -268 0
-269 -229 0
-269 268 0
270 -227 -269 0
-270 227 0
-270 269 0
271 225 -270 0
-271 -225 0
-271 270 0
272 223 -271 0
-272 -223 0
-272 271 0
273 -220 -272 0
-273 220 0
-273 272 0
274 218 -273 0
-274 -218 0
-274 273 0
275 216 -274 0
-275 -216 0
-275 274 0
276 -214 -275 0
-276 214 0
-276 275 0
277 212 -276 0
-277 -212 0
-277 276 0
278 -39 -277 0
-278 39 0
-278 277 0
279 -38 -278 0
-279 38 0
-279 278 0
280 -37 -279 0
-280 37 0
-280 279 0
281 -36 -280 0
-281 36 0
-281 280 0
282 -35 -281 0
-282 35 0
-282 281 0
283 -34 -282 0
-283 34 0
-283 282 0
284 -33 -283 0
-284 33 0
-284 283 0
285 -32 -284 0
-285 32 0
-285 284 0
286 32 33 0
-286 -32 0
-286 -33 0
287 34 -286 0
-287 -34 0
-287 286 0
288 35 -287 0
-288 -35 0
-288 287 0
289 36 -288 0
-289 -36 0
-289 288 0
290 37 -289 0
-290 -37 0
-290 289 0
291 38 -290 0
-291 -38 0
-291 290 0
292 39 -291 0
-292 -39 0
-292 291 0
293 -212 -292 0
-293 212 0
-293 292 0
294 214 -293 0
-294 -214 0
-294 293 0
295 -216 -294 0
-295 216 0
-295 294 0
296 -218 -295 0
-296 218 0
-296 295 0
297 220 -296 0
-297 -220 0
-297 296 0
298 -223 -297 0
-298 223 0
-298 297 0
299 -225 -298 0
-299 225 0
-299 298 0
300 227 -299 0
-300 -227 0
-300 299 0
301 -229 -300 0
-301 229 0
-301 300 0
302 231 -301 0
-302 -231 0
-302 301 0
303 -234 -302 0
-303 234 0
-303 302 0
304 -236 -303 0
-304 236 0
-304 303 0
305 -238 -304 0
-305 238 0
-305 304 0
306 240 -305 0
-306 -240 0
-306 305 0
307 -243 -306 0
-307 243 0
-307 306 0
308 -246 -307 0
-308 246 0
-308 307 0
309 -248 -308 0
-309 248 0
-309 308 0
310 250 -309 0
-310 -250 0
-310 309 0
311 -253 -310 0
-311 253 0
-311 310 0
312 -40 -311 0
-312 40 0
-312 311 0
313 -207 312 0
-313 207 0
-313 -312 0
314 285 313 0
-314 -285 0
-314 -313 0
315 210 -314 0
-315 -210 0
-315 314 0
316 158 315 0
-316 -158 0
-316 -315 0
317 208 -316 0
-317 -208 0
-317 316 0
318 186 317 0
-318 -186 0
-318 -317 0
323 248 -257 0
-323 -248 0
-323 257 0
324 246 -323 0
-324 -246 0
-324 323 0
325 243 -324 0
-325 -243 0
-325 324 0
326 -240 -325 0
-326 240 0
-326 325 0
327 238 -326 0
-327 -238 0
-327 326 0
328 236 -327 0
-328 -236 0
-328 327 0
329 234 -328 0
-329 -234 0
-329 328 0
330 -231 -329 0
-330 231 0
-330 329 0
331 229 -330 0
-331 -229 0
-331 330 0
332 -227 -331 0
-332 227 0
-332 331 0
333 225 -332 0
-333 -225 0
-333 332 0
334 223 -333 0
-334 -223 0
-334 333 0
335 -220 -334 0
-335 220 0
-335 334 0
336 218 -335 0
-336 -218 0
-336 335 0
337 216 -336 0
-337 -216 0
-337 336 0
338 -214 -337 0
-338 214 0
-338 337 0
339 212 -338 0
-339 -212 0
-339 338 0
340 -39 -339 0
-340 39 0
-340 339 0
341 -38 -340 0
-341 38 0
-341 340 0
342 -37 -341 0
-342 37 0
-342 341 0
343 -36 -342 0
-343 36 0
-343 342 0
344 -35 -343 0
-344 35 0
-344 343 0
345 -34 -344 0
-345 34 0
-345 344 0
346 -33 -345 0
-346 33 0
-346 345 0
347 -32 -346 0
-347 32 0
-347 346 0
348 313 347 0
-348 -313 0
-348 -347 0
349 210 -348 0
-349 -210 0
-349 348 0
350 158 349 0
-350 -158 0
-350 -349 0
351 208 -350 0
-351 -208 0
-351 350 0
352 186 351 0
-352 -186 0
-352 -351 0
353 318 -352 0
-353 -318 0
-353 352 0
354 -318 352 0
-354 318 0
-354 -352 0
355 353 354 0
-355 -353 0
-355 -354 0
62 355 0
-62 -355 0
62 0
